2 0 2 0
2 1 3 5
1 0 1 0
0 0 2 5
3 0 1 8
5 0 1 13
0 1 0 6
3 1 0 13
5 1 3 16
1 1 2 8
1 2 4 13
0 2 1 16
0 3 3 22
4 0 2 13
2 2 5 9
2 3 0 18
3 2 2 22
4 1 1 22
5 2 5 19
5 3 0 28
3 3 3 29
1 3 5 28
2 4 1 27
0 4 5 38
1 4 0 38
4 2 4 25
2 5 4 30
4 3 5 41
4 4 0 48
3 4 4 37
1 5 3 48
3 5 5 45
4 5 3 52
5 4 4 45
5 5 2 49
0 5 4 49

